************************************************************************
file with basedata            : mm23_.bas
initial value random generator: 1942692585
************************************************************************
projects                      :  1
jobs (incl. supersource/sink ):  12
horizon                       :  88
RESOURCES
  - renewable                 :  2   R
  - nonrenewable              :  2   N
  - doubly constrained        :  0   D
************************************************************************
PROJECT INFORMATION:
pronr.  #jobs rel.date duedate tardcost  MPM-Time
    1     10      0       14        6       14
************************************************************************
PRECEDENCE RELATIONS:
jobnr.    #modes  #successors   successors
   0        1          3           1   2   3
   1        3          1           4
   2        3          3           8   9  10
   3        3          3           6   7  10
   4        3          2           5   9
   5        3          1           8
   6        3          1           8
   7        3          1           9
   8        3          1          11
   9        3          1          11
  10        3          1          11
  11        1          0        
************************************************************************
REQUESTS/DURATIONS:
jobnr. mode duration  R 1  R 2  R 3  R 4  E(W 1)  E(W 2)
------------------------------------------------------------------------
  0      1     0       0    0    0    0     0       0
  1      1     2       8    0    4    6    16      20
  2      1     3       2    0    8   10     6      54
  3      1     3       2    0    5    7     6      36
  4      1     2       0    7    6    4    14      20
  5      1     1       0    9    4    5     9       9
  6      1     3       0    4    6    9    12      45
  7      1     8       0    8    8    5    64      104
  8      1     3       0    3   10    7     9      51
  9      1     3       0    2    6    5     6      33
 10      1     2       0    2    4    8     4      24
 11      1     0       0    0    0    0     0       0
************************************************************************
RESOURCEAVAILABILITIES:
  R 1  R 2
   27   113
************************************************************************
RESOURCE LIMITS:
jobnr.  l(R 1)  u(R 1)  l(R 2)  u(R 2)
------------------------------------------------------------------------
  0        0       0       0       0
  1        4       8       5      10
  2        1       2       9      18
  3        1       2       7      12
  4        4       7       5      10
  5        5       9       5       9
  6        2       4       8      15
  7        4       8       7      13
  8        2       3       9      17
  9        1       2       6      11
 10        1       2       6      12
 11        0       0       0       0
************************************************************************
SCENARIOS:
------------------------------------------------------------------------
RESOURCE k = 1
s = 1: (0, 25, 4, 4, 16, 5, 20, 67, 12, 6, 6, 0)
s = 2: (0, 20, 6, 7, 12, 8, 23, 39, 10, 4, 6, 0)
s = 3: (0, 15, 7, 10, 19, 6, 19, 63, 13, 7, 4, 0)
s = 4: (0, 23, 7, 10, 22, 10, 12, 80, 14, 5, 5, 0)
s = 5: (0, 17, 4, 8, 18, 13, 15, 56, 7, 7, 5, 0)
s = 6: (0, 15, 8, 6, 10, 8, 9, 58, 11, 5, 5, 0)
s = 7: (0, 18, 6, 5, 14, 8, 16, 50, 15, 4, 4, 0)
s = 8: (0, 16, 7, 5, 10, 7, 9, 45, 8, 8, 4, 0)
s = 9: (0, 26, 6, 10, 18, 8, 9, 96, 8, 5, 3, 0)
s = 10: (0, 18, 9, 9, 13, 10, 9, 90, 15, 6, 3, 0)
s = 11: (0, 11, 6, 5, 10, 10, 15, 73, 11, 5, 4, 0)
s = 12: (0, 15, 7, 4, 18, 11, 21, 87, 9, 6, 4, 0)
s = 13: (0, 22, 6, 5, 16, 10, 15, 43, 9, 6, 4, 0)
s = 14: (0, 15, 5, 4, 10, 14, 14, 36, 10, 8, 4, 0)
s = 15: (0, 18, 6, 10, 19, 6, 8, 67, 13, 5, 5, 0)
s = 16: (0, 16, 6, 4, 22, 8, 12, 61, 12, 7, 4, 0)
s = 17: (0, 17, 6, 6, 18, 13, 14, 58, 14, 4, 7, 0)
s = 18: (0, 19, 5, 5, 18, 6, 11, 63, 9, 8, 4, 0)
s = 19: (0, 14, 6, 6, 12, 9, 12, 48, 15, 6, 4, 0)
s = 20: (0, 12, 6, 11, 15, 17, 10, 52, 6, 5, 4, 0)
s = 21: (0, 10, 4, 6, 18, 8, 9, 76, 8, 5, 4, 0)
s = 22: (0, 28, 11, 5, 19, 8, 9, 45, 12, 7, 5, 0)
s = 23: (0, 10, 10, 8, 13, 15, 15, 63, 11, 6, 4, 0)
s = 24: (0, 18, 6, 4, 13, 13, 11, 87, 6, 7, 4, 0)
s = 25: (0, 25, 8, 6, 15, 10, 10, 45, 7, 5, 4, 0)
s = 26: (0, 21, 6, 6, 16, 8, 14, 107, 13, 8, 5, 0)
s = 27: (0, 24, 5, 6, 22, 11, 10, 89, 8, 5, 5, 0)
s = 28: (0, 14, 9, 6, 14, 12, 19, 56, 10, 5, 5, 0)
s = 29: (0, 15, 9, 9, 17, 9, 11, 51, 7, 4, 5, 0)
s = 30: (0, 22, 5, 5, 16, 6, 10, 67, 9, 8, 5, 0)
s = 31: (0, 12, 8, 10, 22, 5, 16, 69, 8, 5, 3, 0)
s = 32: (0, 16, 4, 8, 10, 8, 10, 68, 10, 4, 6, 0)
s = 33: (0, 24, 4, 5, 11, 9, 10, 91, 9, 9, 5, 0)
s = 34: (0, 17, 6, 9, 19, 11, 16, 44, 6, 7, 5, 0)
s = 35: (0, 14, 8, 5, 14, 8, 11, 47, 11, 7, 6, 0)
s = 36: (0, 18, 5, 6, 14, 11, 15, 58, 8, 5, 4, 0)
s = 37: (0, 18, 7, 5, 9, 6, 10, 41, 8, 7, 6, 0)
s = 38: (0, 9, 5, 5, 19, 10, 16, 34, 9, 7, 4, 0)
s = 39: (0, 10, 7, 9, 15, 9, 10, 56, 8, 4, 5, 0)
s = 40: (0, 13, 11, 5, 16, 7, 21, 74, 12, 6, 5, 0)
s = 41: (0, 13, 8, 5, 11, 9, 12, 81, 14, 5, 5, 0)
s = 42: (0, 14, 5, 7, 23, 13, 10, 47, 12, 6, 4, 0)
s = 43: (0, 16, 7, 4, 14, 10, 15, 49, 10, 7, 4, 0)
s = 44: (0, 13, 6, 6, 11, 9, 11, 83, 7, 7, 4, 0)
s = 45: (0, 16, 10, 6, 18, 8, 8, 78, 10, 5, 4, 0)
s = 46: (0, 19, 6, 5, 9, 8, 13, 79, 8, 4, 4, 0)
s = 47: (0, 9, 6, 5, 15, 7, 9, 75, 11, 5, 4, 0)
s = 48: (0, 12, 5, 6, 16, 11, 9, 81, 13, 6, 5, 0)
s = 49: (0, 15, 4, 10, 15, 9, 12, 36, 14, 7, 5, 0)
s = 50: (0, 14, 7, 8, 13, 8, 9, 61, 7, 8, 4, 0)
s = 51: (0, 18, 5, 7, 14, 10, 11, 52, 9, 8, 4, 0)
s = 52: (0, 15, 4, 6, 15, 11, 14, 69, 8, 9, 5, 0)
s = 53: (0, 25, 6, 6, 19, 9, 9, 54, 9, 7, 6, 0)
s = 54: (0, 16, 7, 5, 15, 11, 15, 65, 6, 5, 6, 0)
s = 55: (0, 10, 5, 7, 16, 13, 17, 80, 10, 10, 6, 0)
s = 56: (0, 13, 5, 5, 21, 6, 13, 46, 7, 11, 4, 0)
s = 57: (0, 13, 6, 5, 13, 6, 12, 75, 9, 6, 5, 0)
s = 58: (0, 14, 6, 7, 12, 14, 15, 51, 7, 5, 3, 0)
s = 59: (0, 21, 8, 7, 9, 9, 18, 66, 13, 8, 3, 0)
s = 60: (0, 19, 5, 6, 10, 10, 17, 74, 10, 7, 5, 0)
s = 61: (0, 11, 9, 11, 8, 9, 9, 57, 6, 6, 3, 0)
s = 62: (0, 12, 10, 4, 23, 10, 12, 105, 7, 6, 3, 0)
s = 63: (0, 26, 4, 6, 12, 10, 10, 40, 7, 11, 5, 0)
s = 64: (0, 21, 7, 9, 12, 10, 15, 51, 11, 5, 4, 0)
s = 65: (0, 12, 5, 5, 16, 6, 11, 45, 14, 6, 3, 0)
s = 66: (0, 18, 4, 7, 19, 8, 13, 70, 8, 8, 3, 0)
s = 67: (0, 16, 8, 8, 14, 8, 14, 39, 7, 5, 5, 0)
s = 68: (0, 19, 7, 6, 9, 6, 11, 62, 7, 6, 3, 0)
s = 69: (0, 14, 6, 7, 18, 10, 13, 84, 9, 7, 4, 0)
s = 70: (0, 20, 5, 6, 17, 11, 12, 39, 9, 12, 4, 0)
s = 71: (0, 20, 5, 5, 20, 8, 7, 46, 8, 6, 6, 0)
s = 72: (0, 11, 4, 6, 11, 13, 13, 38, 8, 5, 6, 0)
s = 73: (0, 20, 7, 9, 15, 11, 9, 88, 10, 8, 5, 0)
s = 74: (0, 23, 4, 6, 14, 10, 16, 52, 7, 5, 5, 0)
s = 75: (0, 18, 6, 4, 14, 9, 21, 45, 12, 5, 4, 0)
s = 76: (0, 22, 6, 7, 12, 8, 14, 58, 8, 6, 4, 0)
s = 77: (0, 12, 6, 7, 8, 9, 13, 55, 7, 6, 5, 0)
s = 78: (0, 19, 4, 7, 10, 12, 14, 86, 14, 7, 3, 0)
s = 79: (0, 18, 5, 7, 17, 9, 8, 88, 8, 6, 3, 0)
s = 80: (0, 23, 8, 4, 16, 7, 20, 89, 11, 9, 6, 0)
s = 81: (0, 15, 6, 7, 11, 11, 18, 54, 9, 5, 5, 0)
s = 82: (0, 15, 7, 5, 11, 8, 16, 54, 11, 5, 4, 0)
s = 83: (0, 14, 4, 5, 20, 8, 10, 87, 11, 7, 3, 0)
s = 84: (0, 11, 5, 8, 15, 12, 10, 87, 10, 8, 4, 0)
s = 85: (0, 12, 5, 9, 17, 11, 9, 68, 10, 5, 6, 0)
s = 86: (0, 13, 6, 9, 11, 9, 10, 87, 6, 5, 4, 0)
s = 87: (0, 22, 8, 6, 10, 8, 9, 69, 12, 4, 7, 0)
s = 88: (0, 15, 5, 6, 9, 9, 8, 90, 11, 9, 6, 0)
s = 89: (0, 16, 10, 8, 14, 12, 8, 98, 9, 6, 6, 0)
s = 90: (0, 14, 7, 6, 13, 10, 12, 36, 11, 9, 6, 0)
s = 91: (0, 25, 7, 5, 17, 9, 13, 57, 11, 8, 3, 0)
s = 92: (0, 14, 10, 9, 12, 14, 13, 93, 7, 8, 7, 0)
s = 93: (0, 22, 6, 5, 12, 9, 13, 108, 13, 4, 5, 0)
s = 94: (0, 15, 5, 10, 15, 11, 17, 61, 9, 6, 6, 0)
s = 95: (0, 15, 10, 4, 17, 11, 13, 56, 7, 9, 4, 0)
s = 96: (0, 14, 7, 6, 16, 10, 10, 60, 16, 6, 5, 0)
s = 97: (0, 9, 10, 5, 20, 8, 16, 70, 8, 10, 6, 0)
s = 98: (0, 11, 6, 7, 8, 12, 15, 41, 8, 10, 5, 0)
s = 99: (0, 14, 6, 8, 18, 6, 14, 61, 6, 5, 3, 0)
s = 100: (0, 18, 5, 6, 12, 9, 9, 67, 11, 4, 4, 0)
s = 101: (0, 11, 6, 5, 12, 9, 10, 65, 12, 5, 4, 0)
s = 102: (0, 13, 7, 10, 22, 7, 15, 71, 10, 4, 4, 0)
s = 103: (0, 12, 4, 7, 18, 10, 12, 103, 11, 7, 3, 0)
s = 104: (0, 15, 10, 6, 12, 10, 10, 61, 9, 10, 3, 0)
s = 105: (0, 17, 8, 6, 22, 9, 8, 70, 7, 6, 3, 0)
s = 106: (0, 15, 4, 6, 10, 7, 9, 43, 5, 9, 4, 0)
s = 107: (0, 27, 8, 10, 14, 13, 11, 47, 7, 8, 3, 0)
s = 108: (0, 24, 8, 7, 14, 8, 14, 85, 8, 6, 6, 0)
s = 109: (0, 17, 6, 5, 13, 15, 9, 51, 13, 9, 3, 0)
s = 110: (0, 19, 9, 7, 10, 8, 11, 71, 7, 7, 3, 0)
s = 111: (0, 10, 5, 7, 12, 9, 7, 45, 7, 10, 4, 0)
s = 112: (0, 11, 4, 6, 21, 9, 10, 54, 12, 4, 4, 0)
s = 113: (0, 24, 7, 6, 17, 7, 8, 71, 7, 7, 7, 0)
s = 114: (0, 18, 8, 4, 16, 13, 12, 53, 12, 5, 4, 0)
s = 115: (0, 12, 6, 5, 10, 7, 12, 59, 7, 6, 6, 0)
s = 116: (0, 17, 9, 5, 10, 8, 9, 64, 9, 8, 4, 0)
s = 117: (0, 9, 4, 6, 9, 8, 9, 55, 17, 6, 5, 0)
s = 118: (0, 20, 7, 5, 10, 7, 18, 70, 13, 6, 3, 0)
s = 119: (0, 26, 6, 8, 15, 8, 14, 42, 12, 10, 4, 0)
s = 120: (0, 14, 9, 6, 10, 7, 13, 64, 8, 8, 4, 0)
s = 121: (0, 26, 7, 8, 16, 15, 9, 67, 11, 5, 3, 0)
s = 122: (0, 16, 6, 7, 14, 7, 12, 56, 6, 5, 4, 0)
s = 123: (0, 24, 7, 6, 19, 10, 12, 72, 12, 7, 4, 0)
s = 124: (0, 19, 4, 6, 19, 7, 15, 92, 9, 5, 3, 0)
s = 125: (0, 17, 5, 8, 16, 10, 8, 82, 12, 7, 4, 0)
s = 126: (0, 15, 4, 7, 17, 12, 11, 55, 8, 4, 4, 0)
s = 127: (0, 19, 5, 7, 14, 16, 13, 58, 8, 4, 4, 0)
s = 128: (0, 13, 7, 7, 15, 14, 11, 64, 8, 4, 3, 0)
s = 129: (0, 16, 5, 5, 13, 7, 13, 71, 10, 6, 5, 0)
s = 130: (0, 18, 10, 5, 13, 11, 14, 84, 7, 10, 5, 0)
s = 131: (0, 12, 5, 8, 11, 8, 18, 81, 11, 7, 5, 0)
s = 132: (0, 15, 5, 6, 11, 7, 10, 51, 7, 6, 5, 0)
s = 133: (0, 13, 6, 6, 15, 9, 17, 89, 8, 4, 4, 0)
s = 134: (0, 18, 8, 6, 16, 8, 7, 57, 12, 7, 4, 0)
s = 135: (0, 14, 6, 6, 20, 18, 10, 50, 9, 5, 4, 0)
s = 136: (0, 18, 9, 8, 11, 8, 13, 47, 7, 8, 5, 0)
s = 137: (0, 23, 7, 5, 23, 10, 8, 74, 9, 6, 7, 0)
s = 138: (0, 16, 7, 5, 14, 9, 15, 37, 7, 8, 4, 0)
s = 139: (0, 13, 9, 8, 13, 8, 12, 56, 14, 7, 5, 0)
s = 140: (0, 9, 8, 10, 23, 8, 8, 50, 8, 7, 6, 0)
s = 141: (0, 12, 4, 9, 12, 9, 11, 105, 7, 7, 5, 0)
s = 142: (0, 21, 8, 7, 18, 11, 10, 48, 8, 8, 4, 0)
s = 143: (0, 17, 11, 6, 11, 12, 10, 43, 13, 8, 5, 0)
s = 144: (0, 12, 5, 6, 14, 7, 15, 95, 6, 5, 6, 0)
s = 145: (0, 13, 7, 5, 20, 9, 8, 44, 10, 4, 6, 0)
s = 146: (0, 11, 6, 8, 15, 10, 11, 85, 7, 9, 4, 0)
s = 147: (0, 15, 8, 7, 21, 7, 13, 57, 10, 6, 6, 0)
s = 148: (0, 18, 7, 7, 15, 13, 7, 89, 10, 7, 3, 0)
s = 149: (0, 16, 5, 5, 14, 9, 12, 58, 5, 7, 4, 0)
s = 150: (0, 15, 5, 6, 12, 7, 17, 49, 9, 7, 4, 0)
s = 151: (0, 13, 6, 4, 14, 6, 9, 52, 15, 6, 5, 0)
s = 152: (0, 12, 7, 6, 13, 10, 16, 72, 8, 9, 4, 0)
s = 153: (0, 15, 7, 5, 11, 7, 9, 104, 10, 7, 5, 0)
s = 154: (0, 17, 6, 7, 10, 12, 11, 43, 9, 6, 5, 0)
s = 155: (0, 14, 7, 6, 11, 7, 11, 53, 11, 6, 4, 0)
s = 156: (0, 19, 7, 7, 9, 8, 11, 67, 8, 8, 4, 0)
s = 157: (0, 13, 4, 9, 9, 15, 13, 83, 9, 7, 6, 0)
s = 158: (0, 14, 6, 7, 18, 12, 20, 47, 12, 8, 6, 0)
s = 159: (0, 10, 5, 4, 17, 7, 13, 50, 16, 5, 3, 0)
s = 160: (0, 12, 9, 6, 18, 8, 9, 73, 10, 6, 5, 0)
s = 161: (0, 20, 5, 6, 15, 8, 13, 72, 14, 8, 5, 0)
s = 162: (0, 14, 7, 6, 21, 12, 12, 96, 9, 5, 5, 0)
s = 163: (0, 22, 4, 6, 18, 9, 12, 65, 12, 8, 3, 0)
s = 164: (0, 14, 5, 8, 12, 8, 14, 44, 10, 4, 6, 0)
s = 165: (0, 11, 6, 6, 10, 12, 13, 49, 16, 7, 5, 0)
s = 166: (0, 9, 4, 4, 13, 9, 8, 73, 6, 6, 3, 0)
s = 167: (0, 17, 9, 6, 16, 7, 8, 65, 14, 7, 5, 0)
s = 168: (0, 19, 10, 8, 8, 8, 8, 66, 7, 6, 5, 0)
s = 169: (0, 17, 7, 6, 17, 10, 14, 55, 7, 8, 4, 0)
s = 170: (0, 20, 7, 11, 12, 10, 10, 43, 9, 5, 3, 0)
s = 171: (0, 19, 6, 6, 18, 13, 9, 50, 11, 6, 3, 0)
s = 172: (0, 23, 8, 7, 15, 7, 10, 38, 13, 6, 6, 0)
s = 173: (0, 16, 7, 9, 16, 6, 17, 59, 10, 5, 3, 0)
s = 174: (0, 21, 5, 6, 16, 9, 11, 53, 6, 5, 4, 0)
s = 175: (0, 13, 4, 9, 20, 8, 10, 53, 6, 7, 4, 0)
s = 176: (0, 21, 5, 6, 14, 11, 14, 75, 11, 6, 9, 0)
s = 177: (0, 18, 5, 6, 9, 11, 12, 40, 14, 7, 5, 0)
s = 178: (0, 9, 5, 7, 11, 10, 13, 83, 9, 6, 3, 0)
s = 179: (0, 12, 5, 7, 14, 9, 8, 63, 6, 7, 5, 0)
s = 180: (0, 18, 5, 6, 20, 13, 10, 45, 9, 5, 4, 0)
s = 181: (0, 15, 4, 6, 16, 11, 10, 36, 8, 6, 5, 0)
s = 182: (0, 26, 11, 7, 10, 7, 15, 57, 12, 4, 4, 0)
s = 183: (0, 16, 8, 7, 16, 13, 8, 66, 8, 9, 5, 0)
s = 184: (0, 21, 9, 5, 21, 7, 11, 66, 6, 8, 3, 0)
s = 185: (0, 15, 4, 5, 19, 6, 19, 79, 8, 8, 3, 0)
s = 186: (0, 15, 5, 6, 22, 7, 12, 69, 7, 5, 5, 0)
s = 187: (0, 20, 5, 8, 19, 6, 14, 65, 10, 7, 5, 0)
s = 188: (0, 16, 7, 10, 16, 11, 12, 45, 8, 10, 4, 0)
s = 189: (0, 17, 10, 7, 19, 10, 11, 44, 9, 7, 4, 0)
s = 190: (0, 17, 5, 7, 20, 10, 10, 44, 9, 9, 5, 0)
s = 191: (0, 29, 6, 7, 13, 10, 11, 60, 13, 7, 3, 0)
s = 192: (0, 19, 5, 7, 14, 10, 9, 71, 12, 5, 3, 0)
s = 193: (0, 19, 8, 4, 10, 7, 13, 42, 8, 7, 4, 0)
s = 194: (0, 17, 6, 7, 15, 10, 22, 103, 9, 5, 4, 0)
s = 195: (0, 17, 6, 5, 18, 10, 12, 57, 12, 8, 5, 0)
s = 196: (0, 13, 9, 6, 16, 12, 11, 78, 10, 5, 4, 0)
s = 197: (0, 12, 6, 7, 9, 9, 10, 53, 9, 5, 4, 0)
s = 198: (0, 19, 7, 4, 17, 10, 14, 82, 11, 5, 5, 0)
s = 199: (0, 25, 5, 7, 8, 8, 12, 69, 11, 5, 4, 0)
s = 200: (0, 21, 5, 4, 11, 7, 10, 45, 7, 7, 3, 0)
------------------------------------------------------------------------
RESOURCE k = 2
s = 1: (0, 32, 35, 23, 22, 5, 75, 108, 64, 32, 34, 0)
s = 2: (0, 24, 54, 39, 17, 8, 84, 63, 56, 21, 35, 0)
s = 3: (0, 19, 61, 59, 26, 6, 68, 102, 72, 38, 20, 0)
s = 4: (0, 28, 62, 55, 31, 10, 44, 130, 77, 28, 26, 0)
s = 5: (0, 22, 34, 48, 25, 13, 56, 91, 35, 34, 26, 0)
s = 6: (0, 19, 67, 31, 14, 8, 33, 94, 59, 28, 25, 0)
s = 7: (0, 22, 50, 26, 20, 8, 58, 82, 84, 22, 19, 0)
s = 8: (0, 20, 61, 26, 15, 7, 31, 73, 43, 44, 23, 0)
s = 9: (0, 33, 51, 59, 25, 8, 32, 155, 45, 28, 15, 0)
s = 10: (0, 23, 81, 52, 18, 10, 34, 147, 80, 29, 17, 0)
s = 11: (0, 14, 48, 29, 14, 10, 54, 118, 59, 27, 21, 0)
s = 12: (0, 18, 59, 24, 25, 11, 76, 141, 46, 33, 21, 0)
s = 13: (0, 27, 54, 27, 22, 10, 53, 70, 47, 28, 22, 0)
s = 14: (0, 19, 39, 21, 13, 14, 51, 59, 55, 40, 20, 0)
s = 15: (0, 23, 52, 55, 28, 6, 28, 109, 74, 26, 30, 0)
s = 16: (0, 20, 50, 24, 32, 8, 43, 98, 66, 38, 20, 0)
s = 17: (0, 21, 54, 33, 26, 13, 52, 94, 76, 21, 42, 0)
s = 18: (0, 23, 39, 29, 25, 6, 39, 101, 47, 42, 21, 0)
s = 19: (0, 18, 48, 31, 17, 9, 45, 77, 85, 30, 22, 0)
s = 20: (0, 15, 48, 61, 21, 17, 38, 83, 30, 23, 22, 0)
s = 21: (0, 12, 31, 32, 25, 8, 33, 123, 43, 27, 20, 0)
s = 22: (0, 35, 91, 29, 27, 8, 33, 73, 65, 35, 27, 0)
s = 23: (0, 12, 86, 43, 18, 15, 55, 103, 63, 31, 20, 0)
s = 24: (0, 22, 47, 20, 19, 13, 41, 141, 34, 36, 22, 0)
s = 25: (0, 31, 70, 35, 21, 10, 38, 72, 35, 25, 20, 0)
s = 26: (0, 26, 54, 32, 22, 8, 51, 174, 74, 42, 26, 0)
s = 27: (0, 30, 38, 35, 31, 11, 36, 144, 45, 28, 28, 0)
s = 28: (0, 17, 78, 32, 19, 12, 69, 90, 55, 25, 28, 0)
s = 29: (0, 19, 74, 51, 24, 9, 41, 82, 39, 21, 28, 0)
s = 30: (0, 27, 44, 29, 23, 6, 37, 108, 47, 39, 27, 0)
s = 31: (0, 15, 71, 56, 31, 5, 57, 112, 40, 23, 15, 0)
s = 32: (0, 20, 35, 44, 13, 8, 37, 109, 56, 21, 31, 0)
s = 33: (0, 30, 35, 27, 15, 9, 37, 147, 49, 46, 27, 0)
s = 34: (0, 21, 50, 51, 27, 11, 57, 71, 34, 34, 25, 0)
s = 35: (0, 18, 68, 26, 20, 8, 39, 76, 58, 36, 31, 0)
s = 36: (0, 23, 43, 36, 20, 11, 54, 94, 43, 27, 19, 0)
s = 37: (0, 22, 60, 29, 13, 6, 35, 67, 42, 35, 31, 0)
s = 38: (0, 11, 43, 26, 27, 10, 59, 55, 47, 36, 23, 0)
s = 39: (0, 13, 63, 50, 22, 9, 36, 90, 43, 18, 26, 0)
s = 40: (0, 17, 91, 30, 22, 7, 79, 121, 66, 32, 27, 0)
s = 41: (0, 17, 65, 30, 16, 9, 42, 131, 76, 26, 25, 0)
s = 42: (0, 18, 45, 41, 33, 13, 37, 76, 66, 30, 23, 0)
s = 43: (0, 19, 59, 21, 20, 10, 55, 80, 52, 35, 20, 0)
s = 44: (0, 16, 48, 36, 16, 9, 41, 134, 37, 35, 23, 0)
s = 45: (0, 19, 85, 35, 25, 8, 28, 126, 53, 25, 23, 0)
s = 46: (0, 24, 50, 26, 13, 8, 48, 128, 44, 20, 24, 0)
s = 47: (0, 11, 54, 26, 22, 7, 33, 122, 60, 26, 21, 0)
s = 48: (0, 15, 38, 33, 23, 11, 33, 132, 74, 30, 26, 0)
s = 49: (0, 18, 32, 55, 22, 9, 45, 59, 76, 36, 29, 0)
s = 50: (0, 17, 57, 47, 18, 8, 32, 99, 35, 41, 23, 0)
s = 51: (0, 22, 38, 41, 20, 10, 41, 84, 46, 41, 22, 0)
s = 52: (0, 19, 35, 36, 21, 11, 51, 112, 45, 45, 26, 0)
s = 53: (0, 32, 46, 32, 26, 9, 31, 87, 50, 38, 31, 0)
s = 54: (0, 19, 55, 25, 21, 11, 55, 105, 34, 26, 33, 0)
s = 55: (0, 12, 37, 40, 22, 13, 62, 129, 53, 51, 34, 0)
s = 56: (0, 16, 39, 27, 30, 6, 49, 75, 37, 59, 21, 0)
s = 57: (0, 16, 46, 26, 19, 6, 45, 122, 50, 33, 25, 0)
s = 58: (0, 18, 53, 39, 17, 14, 54, 82, 40, 27, 17, 0)
s = 59: (0, 26, 66, 38, 13, 9, 67, 108, 73, 43, 13, 0)
s = 60: (0, 23, 39, 34, 14, 10, 62, 119, 53, 37, 27, 0)
s = 61: (0, 13, 77, 64, 12, 9, 34, 92, 29, 32, 17, 0)
s = 62: (0, 15, 87, 20, 33, 10, 42, 170, 38, 29, 18, 0)
s = 63: (0, 33, 32, 32, 16, 10, 36, 65, 38, 58, 25, 0)
s = 64: (0, 26, 59, 51, 17, 10, 54, 83, 61, 26, 24, 0)
s = 65: (0, 14, 39, 30, 22, 6, 41, 73, 75, 28, 15, 0)
s = 66: (0, 22, 33, 37, 27, 8, 48, 113, 41, 42, 16, 0)
s = 67: (0, 20, 64, 43, 20, 8, 51, 63, 38, 26, 25, 0)
s = 68: (0, 24, 62, 33, 13, 6, 40, 100, 37, 32, 16, 0)
s = 69: (0, 18, 49, 41, 26, 10, 49, 136, 49, 38, 24, 0)
s = 70: (0, 25, 37, 36, 24, 11, 43, 64, 47, 63, 24, 0)
s = 71: (0, 24, 42, 26, 28, 8, 26, 74, 44, 33, 31, 0)
s = 72: (0, 14, 35, 35, 15, 13, 48, 62, 44, 26, 35, 0)
s = 73: (0, 25, 61, 53, 22, 11, 31, 143, 56, 43, 26, 0)
s = 74: (0, 29, 32, 35, 20, 10, 59, 84, 37, 25, 25, 0)
s = 75: (0, 23, 50, 24, 20, 9, 78, 73, 64, 23, 19, 0)
s = 76: (0, 27, 50, 38, 17, 8, 51, 94, 45, 33, 21, 0)
s = 77: (0, 15, 48, 39, 12, 9, 49, 89, 36, 30, 25, 0)
s = 78: (0, 24, 36, 37, 14, 12, 51, 139, 76, 37, 16, 0)
s = 79: (0, 22, 41, 40, 24, 9, 28, 142, 41, 29, 17, 0)
s = 80: (0, 29, 69, 23, 23, 7, 74, 144, 58, 48, 35, 0)
s = 81: (0, 18, 46, 37, 15, 11, 65, 87, 48, 25, 25, 0)
s = 82: (0, 19, 57, 28, 15, 8, 58, 88, 58, 24, 21, 0)
s = 83: (0, 18, 31, 29, 28, 8, 34, 142, 58, 34, 14, 0)
s = 84: (0, 14, 41, 43, 21, 12, 38, 142, 52, 41, 20, 0)
s = 85: (0, 15, 38, 53, 24, 11, 34, 110, 57, 24, 31, 0)
s = 86: (0, 16, 50, 52, 15, 9, 36, 141, 31, 27, 24, 0)
s = 87: (0, 27, 72, 32, 14, 8, 33, 112, 66, 20, 40, 0)
s = 88: (0, 19, 41, 33, 13, 9, 28, 145, 62, 50, 36, 0)
s = 89: (0, 20, 85, 47, 20, 12, 29, 159, 47, 30, 36, 0)
s = 90: (0, 17, 57, 34, 19, 10, 45, 58, 58, 49, 34, 0)
s = 91: (0, 31, 55, 28, 23, 9, 48, 92, 59, 43, 16, 0)
s = 92: (0, 17, 89, 49, 16, 14, 46, 151, 39, 41, 41, 0)
s = 93: (0, 28, 49, 27, 17, 9, 48, 175, 70, 22, 26, 0)
s = 94: (0, 18, 40, 60, 21, 11, 64, 98, 49, 33, 34, 0)
s = 95: (0, 19, 86, 24, 23, 11, 47, 90, 37, 46, 19, 0)
s = 96: (0, 18, 62, 33, 22, 10, 37, 97, 87, 31, 30, 0)
s = 97: (0, 11, 82, 28, 28, 8, 57, 114, 43, 53, 35, 0)
s = 98: (0, 14, 47, 38, 12, 12, 54, 67, 43, 51, 29, 0)
s = 99: (0, 17, 50, 45, 25, 6, 50, 98, 32, 24, 16, 0)
s = 100: (0, 23, 42, 33, 17, 9, 34, 109, 59, 21, 19, 0)
s = 101: (0, 13, 50, 30, 16, 9, 35, 105, 66, 26, 21, 0)
s = 102: (0, 16, 60, 59, 31, 7, 54, 115, 56, 21, 19, 0)
s = 103: (0, 15, 31, 37, 26, 10, 44, 168, 62, 34, 16, 0)
s = 104: (0, 19, 88, 33, 17, 10, 37, 100, 50, 52, 18, 0)
s = 105: (0, 21, 64, 34, 31, 9, 29, 113, 38, 33, 18, 0)
s = 106: (0, 19, 31, 36, 13, 7, 31, 70, 27, 49, 24, 0)
s = 107: (0, 34, 67, 57, 20, 13, 38, 77, 35, 40, 16, 0)
s = 108: (0, 30, 72, 41, 20, 8, 53, 139, 45, 29, 34, 0)
s = 109: (0, 21, 53, 25, 19, 15, 32, 83, 74, 46, 18, 0)
s = 110: (0, 23, 74, 38, 14, 8, 41, 116, 39, 37, 17, 0)
s = 111: (0, 13, 38, 41, 17, 9, 25, 73, 40, 55, 22, 0)
s = 112: (0, 14, 35, 33, 29, 9, 36, 88, 67, 22, 24, 0)
s = 113: (0, 29, 57, 32, 25, 7, 29, 115, 38, 37, 37, 0)
s = 114: (0, 22, 64, 24, 23, 13, 43, 86, 64, 25, 20, 0)
s = 115: (0, 14, 48, 30, 15, 7, 43, 95, 39, 30, 35, 0)
s = 116: (0, 21, 77, 28, 14, 8, 31, 103, 49, 44, 20, 0)
s = 117: (0, 11, 34, 36, 13, 8, 31, 89, 94, 30, 25, 0)
s = 118: (0, 25, 56, 28, 13, 7, 66, 113, 73, 32, 15, 0)
s = 119: (0, 33, 52, 43, 21, 8, 49, 68, 66, 54, 21, 0)
s = 120: (0, 18, 76, 33, 14, 7, 49, 103, 44, 42, 23, 0)
s = 121: (0, 33, 55, 46, 22, 15, 31, 108, 60, 26, 14, 0)
s = 122: (0, 19, 53, 37, 19, 7, 42, 90, 30, 24, 22, 0)
s = 123: (0, 30, 63, 34, 26, 10, 43, 116, 65, 36, 19, 0)
s = 124: (0, 23, 36, 31, 27, 7, 53, 149, 51, 23, 18, 0)
s = 125: (0, 21, 42, 43, 23, 10, 27, 133, 68, 37, 23, 0)
s = 126: (0, 19, 34, 38, 24, 12, 40, 89, 40, 20, 22, 0)
s = 127: (0, 24, 43, 37, 20, 16, 47, 94, 43, 19, 22, 0)
s = 128: (0, 16, 56, 38, 21, 14, 39, 104, 43, 22, 15, 0)
s = 129: (0, 19, 38, 29, 19, 7, 48, 114, 53, 28, 30, 0)
s = 130: (0, 22, 83, 27, 19, 11, 52, 136, 37, 53, 30, 0)
s = 131: (0, 15, 39, 48, 16, 8, 66, 132, 58, 37, 29, 0)
s = 132: (0, 18, 40, 36, 15, 7, 37, 82, 35, 28, 28, 0)
s = 133: (0, 16, 49, 32, 21, 9, 63, 145, 41, 22, 19, 0)
s = 134: (0, 22, 66, 35, 23, 8, 27, 93, 68, 35, 19, 0)
s = 135: (0, 17, 52, 34, 29, 18, 37, 82, 48, 23, 19, 0)
s = 136: (0, 23, 77, 43, 15, 8, 46, 76, 38, 40, 25, 0)
s = 137: (0, 29, 59, 27, 32, 10, 28, 120, 51, 28, 39, 0)
s = 138: (0, 20, 58, 28, 20, 9, 53, 59, 38, 40, 21, 0)
s = 139: (0, 16, 81, 44, 18, 8, 45, 90, 78, 35, 30, 0)
s = 140: (0, 12, 66, 55, 32, 8, 30, 80, 42, 36, 31, 0)
s = 141: (0, 15, 32, 50, 16, 9, 39, 170, 36, 37, 30, 0)
s = 142: (0, 26, 69, 39, 26, 11, 35, 78, 40, 43, 23, 0)
s = 143: (0, 21, 91, 33, 15, 12, 37, 70, 72, 41, 26, 0)
s = 144: (0, 15, 42, 34, 20, 7, 54, 154, 32, 24, 32, 0)
s = 145: (0, 16, 60, 30, 28, 9, 28, 71, 55, 22, 34, 0)
s = 146: (0, 14, 52, 43, 22, 10, 39, 138, 37, 49, 21, 0)
s = 147: (0, 18, 69, 37, 30, 7, 47, 92, 54, 30, 32, 0)
s = 148: (0, 23, 60, 38, 22, 13, 26, 144, 56, 37, 17, 0)
s = 149: (0, 20, 37, 26, 20, 9, 45, 93, 27, 39, 19, 0)
s = 150: (0, 18, 45, 31, 17, 7, 61, 80, 46, 36, 21, 0)
s = 151: (0, 16, 46, 22, 20, 6, 34, 85, 83, 31, 29, 0)
s = 152: (0, 15, 55, 36, 18, 10, 57, 117, 43, 49, 24, 0)
s = 153: (0, 19, 55, 28, 16, 7, 33, 168, 53, 36, 30, 0)
s = 154: (0, 21, 52, 41, 14, 12, 39, 69, 49, 31, 25, 0)
s = 155: (0, 17, 60, 35, 15, 7, 39, 86, 58, 33, 22, 0)
s = 156: (0, 24, 55, 40, 12, 8, 38, 108, 41, 41, 24, 0)
s = 157: (0, 16, 30, 50, 12, 15, 48, 134, 51, 34, 33, 0)
s = 158: (0, 18, 54, 40, 25, 12, 75, 76, 64, 44, 34, 0)
s = 159: (0, 12, 42, 23, 25, 7, 48, 81, 87, 25, 18, 0)
s = 160: (0, 15, 79, 32, 26, 8, 33, 118, 56, 33, 28, 0)
s = 161: (0, 24, 45, 36, 21, 8, 47, 117, 76, 42, 30, 0)
s = 162: (0, 17, 56, 36, 29, 12, 45, 156, 48, 27, 26, 0)
s = 163: (0, 27, 33, 32, 26, 9, 45, 106, 63, 44, 17, 0)
s = 164: (0, 17, 38, 46, 17, 8, 50, 71, 52, 20, 35, 0)
s = 165: (0, 13, 52, 36, 14, 12, 48, 80, 87, 35, 28, 0)
s = 166: (0, 11, 35, 21, 18, 9, 30, 118, 34, 33, 17, 0)
s = 167: (0, 21, 76, 31, 22, 7, 28, 105, 78, 39, 25, 0)
s = 168: (0, 24, 86, 47, 11, 8, 30, 106, 36, 31, 30, 0)
s = 169: (0, 21, 61, 31, 25, 10, 53, 89, 40, 40, 19, 0)
s = 170: (0, 25, 58, 61, 17, 10, 37, 70, 46, 25, 18, 0)
s = 171: (0, 24, 52, 33, 25, 13, 32, 82, 59, 32, 16, 0)
s = 172: (0, 29, 68, 38, 21, 7, 38, 61, 69, 33, 32, 0)
s = 173: (0, 20, 60, 49, 22, 6, 63, 95, 56, 23, 16, 0)
s = 174: (0, 27, 39, 34, 22, 9, 40, 85, 33, 24, 19, 0)
s = 175: (0, 16, 32, 54, 28, 8, 34, 85, 30, 38, 19, 0)
s = 176: (0, 26, 41, 34, 20, 11, 50, 122, 60, 31, 49, 0)
s = 177: (0, 23, 42, 34, 12, 11, 43, 64, 79, 38, 30, 0)
s = 178: (0, 11, 39, 40, 15, 10, 46, 134, 50, 29, 17, 0)
s = 179: (0, 14, 44, 39, 19, 9, 29, 103, 29, 36, 27, 0)
s = 180: (0, 22, 38, 35, 29, 13, 38, 73, 48, 23, 23, 0)
s = 181: (0, 18, 36, 36, 22, 11, 38, 57, 44, 32, 29, 0)
s = 182: (0, 33, 91, 42, 14, 7, 53, 92, 67, 20, 21, 0)
s = 183: (0, 20, 66, 39, 23, 13, 27, 107, 45, 45, 26, 0)
s = 184: (0, 26, 73, 26, 30, 7, 40, 107, 33, 41, 14, 0)
s = 185: (0, 18, 35, 26, 27, 6, 69, 129, 44, 43, 14, 0)
s = 186: (0, 18, 43, 36, 31, 7, 43, 112, 39, 25, 26, 0)
s = 187: (0, 25, 45, 46, 27, 6, 53, 105, 55, 36, 27, 0)
s = 188: (0, 20, 56, 57, 23, 11, 44, 72, 42, 50, 19, 0)
s = 189: (0, 21, 83, 41, 28, 10, 40, 71, 51, 36, 21, 0)
s = 190: (0, 21, 41, 38, 28, 10, 38, 71, 51, 46, 27, 0)
s = 191: (0, 36, 47, 39, 18, 10, 39, 97, 70, 38, 17, 0)
s = 192: (0, 24, 45, 41, 19, 10, 31, 115, 64, 27, 17, 0)
s = 193: (0, 23, 65, 24, 14, 7, 46, 69, 44, 36, 22, 0)
s = 194: (0, 22, 49, 42, 21, 10, 80, 167, 50, 25, 24, 0)
s = 195: (0, 21, 50, 26, 25, 10, 44, 93, 68, 39, 26, 0)
s = 196: (0, 16, 77, 34, 22, 12, 39, 126, 56, 26, 24, 0)
s = 197: (0, 15, 53, 41, 12, 9, 37, 85, 46, 23, 19, 0)
s = 198: (0, 24, 56, 20, 24, 10, 52, 132, 62, 27, 28, 0)
s = 199: (0, 31, 37, 41, 12, 8, 43, 112, 62, 27, 22, 0)
s = 200: (0, 27, 44, 21, 15, 7, 37, 73, 40, 36, 17, 0)
************************************************************************
ES/LS-VALUES:
jobnr.   ES(i)    LS(i)
------------------------------------------------------------------------
  0        0        0
  1        0       72
  2        0       76
  3        0       62
  4        3       76
  5        6       80
  6        5       76
  7        5       68
  8       10       82
  9       18       82
 10        5       83
 11       24       88
************************************************************************
BIG-M-VALUES:
M1 = 52, M2 = 283
************************************************************************
